SLURM_JOB_ID: 55259177
SLURM_JOB_USER: vsc34888
SLURM_JOB_ACCOUNT: lp_elect_gen_modeling
SLURM_JOB_NAME: RTS24_full_MILP_DC
SLURM_CLUSTER_NAME: genius
SLURM_JOB_PARTITION: batch
SLURM_NNODES: 1
SLURM_NODELIST: r22i13n15
SLURM_JOB_CPUS_PER_NODE: 36
Date: Mon Oct  2 17:51:47 CEST 2023
Walltime: 01-00:00:00
========================================================================
Activation OK
Starting runs

 #### Academic research license - for non-commercial use only #### 

RTS24
/vsc-hard-mounts/leuven-data/348/vsc34888/JointResearch/05. Models/06.Benchmarking/A.The_full_year_MILP
gurobi
['oSN_Main_DCOPF.py', '--case', 'RTS24']
Namespace(case='RTS24', dir='/vsc-hard-mounts/leuven-data/348/vsc34888/JointResearch/05. Models/06.Benchmarking/A.The_full_year_MILP', solver='gurobi')
Namespace(case='RTS24', dir='/vsc-hard-mounts/leuven-data/348/vsc34888/JointResearch/05. Models/06.Benchmarking/A.The_full_year_MILP', solver='gurobi')
Reading    input data                 ...  0 s
Setting up input data                 ...  12 s
Generating objective function         ...  4 s
Generating operation & investment     ...  0 s
Generating balance                    ...  30 s
Generating storage operation          ...  0 s
Generating generation commitment      ...  15 s
Generating generation capacity        ...  7 s
Generating network    capacity        ...  18 s
Generating network    constraints     ...  57 s
Econometric analysis  constraints     ...  0 s
Writing LP file                       ...  140 s
Set parameter Username
Set parameter TokenServer to value "SET-S-ME-LM3.luna.kuleuven.be"
Read LP format model from file /tmp/tmp649rn4vk.pyomo.lp
Reading time = 10.49 seconds
x1: 3887523 rows, 2254155 columns, 10466196 nonzeros
Set parameter QCPDual to value 1
Set parameter LogFile to value "/vsc-hard-mounts/leuven-data/348/vsc34888/JointResearch/05. Models/06.Benchmarking/A.The_full_year_MILP/RTS24/openStarNet_RTS24.log"
Set parameter Method to value 2
Set parameter MIPFocus to value 1
Set parameter Presolve to value 2
Set parameter RINS to value 100
Set parameter MIPGap to value 0.01
Set parameter Threads to value 36
Set parameter TimeLimit to value 604800
Set parameter IterationLimit to value 760000000
Gurobi Optimizer version 9.5.0 build v9.5.0rc5 (linux64)
Thread count: 36 physical cores, 36 logical processors, using up to 36 threads
Optimize a model with 3887523 rows, 2254155 columns and 10466196 nonzeros
Model fingerprint: 0x2bf57146
Variable types: 2254116 continuous, 39 integer (39 binary)
Coefficient statistics:
  Matrix range     [2e-02, 3e+02]
  Objective range  [1e+00, 1e+00]
  Bounds range     [1e-04, 2e+00]
  RHS range        [1e-04, 1e+00]
Presolve removed 1354107 rows and 339479 columns (presolve time = 5s) ...
Presolve removed 1808355 rows and 793727 columns (presolve time = 10s) ...
Presolve removed 1808355 rows and 793727 columns (presolve time = 15s) ...
Presolve removed 1903239 rows and 973167 columns (presolve time = 20s) ...
Presolve removed 1903239 rows and 973167 columns (presolve time = 25s) ...
Presolve removed 1903239 rows and 973167 columns (presolve time = 30s) ...
Presolve removed 1903239 rows and 973167 columns
Presolve time: 33.58s
Presolved: 1984284 rows, 1280988 columns, 6911790 nonzeros
Variable types: 1280949 continuous, 39 integer (39 binary)
Root relaxation presolve removed 0 rows and 0 columns (presolve time = 6s) ...
Root relaxation presolved: 1984284 rows, 1280988 columns, 6911790 nonzeros

Root barrier log...

Ordering time: 0.69s

Barrier statistics:
 Dense cols : 39
 AA' NZ     : 1.468e+07
 Factor NZ  : 5.002e+07 (roughly 1.7 GB of memory)
 Factor Ops : 1.653e+09 (less than 1 second per iteration)
 Threads    : 35

                  Objective                Residual
Iter       Primal          Dual         Primal    Dual     Compl     Time
   0   6.44576276e+05 -6.16095336e+07  4.51e+00 1.37e+00  4.34e+01    57s
   1   8.59392048e+04 -1.68543454e+07  4.46e-01 2.64e-08  5.72e+00    58s
   2   2.91393363e+04 -1.91154742e+06  1.78e-02 8.54e-09  4.96e-01    59s
   3   1.66941973e+04 -1.44956285e+05  7.06e-04 5.77e-10  4.00e-02    61s
   4   1.96324206e+03 -1.54913587e+04  1.74e-05 4.72e-11  4.32e-03    62s
   5   1.06300889e+03 -4.17096782e+03  3.62e-06 1.29e-11  1.30e-03    63s
   6   7.91071647e+02 -3.03429383e+03  2.45e-06 9.57e-12  9.47e-04    64s
   7   5.89987253e+02 -1.72724470e+03  1.57e-06 5.49e-12  5.73e-04    65s
   8   4.29689887e+02 -6.73416364e+02  8.98e-07 2.52e-12  2.73e-04    66s
   9   3.35883352e+02 -2.91962067e+02  5.73e-07 1.32e-12  1.55e-04    67s
  10   2.60806158e+02 -9.57800055e+01  3.47e-07 6.89e-13  8.82e-05    68s
  11   2.13059462e+02  2.93623374e+01  2.12e-07 7.03e-13  4.55e-05    70s
  12   1.91642139e+02  6.83305596e+01  1.54e-07 4.19e-13  3.05e-05    71s
  13   1.81571672e+02  8.15178697e+01  1.27e-07 3.69e-13  2.48e-05    72s
  14   1.76873750e+02  8.92015589e+01  1.14e-07 6.39e-13  2.17e-05    73s
  15   1.70589157e+02  1.00464135e+02  9.77e-08 8.53e-13  1.74e-05    74s
  16   1.64737060e+02  1.11053634e+02  8.28e-08 4.55e-13  1.33e-05    75s
  17   1.57659698e+02  1.15521275e+02  6.52e-08 6.54e-13  1.04e-05    76s
  18   1.50605237e+02  1.20308025e+02  4.70e-08 4.83e-13  7.50e-06    78s
  19   1.46101763e+02  1.23955647e+02  3.51e-08 2.42e-13  5.48e-06    80s
  20   1.42223632e+02  1.25717702e+02  2.47e-08 1.12e-12  4.08e-06    82s
  21   1.40255570e+02  1.27450276e+02  1.94e-08 2.01e-13  3.17e-06    84s
  22   1.37880933e+02  1.28831802e+02  1.34e-08 4.12e-13  2.24e-06    86s
  23   1.37050075e+02  1.29751352e+02  1.12e-08 9.95e-14  1.81e-06    88s
  24   1.36178776e+02  1.30139544e+02  8.89e-09 1.21e-13  1.49e-06    89s
  25   1.35667820e+02  1.31168162e+02  7.67e-09 2.27e-13  1.11e-06    91s
  26   1.35104671e+02  1.31507467e+02  6.06e-09 4.26e-13  8.90e-07    93s
  27   1.34687948e+02  1.31791806e+02  4.82e-09 3.84e-13  7.17e-07    95s
  28   1.34304492e+02  1.32087684e+02  3.73e-09 3.87e-13  5.49e-07    96s
  29   1.34001175e+02  1.32267732e+02  2.84e-09 3.91e-13  4.29e-07    98s
  30   1.33785765e+02  1.32391163e+02  2.24e-09 8.38e-13  3.45e-07   100s
  31   1.33687309e+02  1.32524675e+02  1.96e-09 1.02e-12  2.88e-07   101s
  32   1.33502909e+02  1.32691310e+02  1.44e-09 3.30e-13  2.01e-07   103s
  33   1.33353495e+02  1.32781489e+02  1.03e-09 3.30e-13  1.42e-07   105s
  34   1.33259165e+02  1.32879573e+02  7.51e-10 3.91e-13  9.39e-08   107s
  35   1.33216731e+02  1.32944250e+02  6.44e-10 7.92e-13  6.74e-08   109s
  36   1.33148050e+02  1.32975322e+02  1.32e-09 1.92e-13  4.27e-08   110s
  37   1.33112275e+02  1.32993930e+02  8.65e-10 7.90e-13  2.93e-08   112s
  38   1.33055006e+02  1.32997384e+02  3.29e-10 4.48e-13  1.43e-08   113s
  39   1.33045127e+02  1.33002046e+02  3.40e-10 6.93e-14  1.07e-08   114s
  40   1.33027615e+02  1.33005855e+02  5.21e-10 2.13e-13  5.38e-09   115s
  41   1.33014232e+02  1.33008681e+02  2.15e-09 3.13e-13  1.37e-09   116s
  42   1.33012659e+02  1.33010881e+02  9.93e-10 2.17e-13  4.40e-10   117s
  43   1.33012029e+02  1.33011280e+02  9.06e-11 1.42e-13  1.85e-10   118s
  44   1.33011970e+02  1.33011791e+02  2.16e-11 6.11e-13  4.43e-11   119s
  45   1.33011959e+02  1.33011946e+02  1.85e-10 2.47e-12  3.20e-12   121s
  46   1.33011950e+02  1.33011950e+02  1.36e-09 2.15e-12  7.02e-15   122s

Barrier solved model in 46 iterations and 121.63 seconds (79.02 work units)
Optimal objective 1.33011950e+02


Root crossover log...

  386396 DPushes remaining with DInf 0.0000000e+00               125s
       1 DPushes remaining with DInf 0.0000000e+00               126s
       0 DPushes remaining with DInf 0.0000000e+00               127s

   99848 PPushes remaining with PInf 2.9665490e-06               127s
   52580 PPushes remaining with PInf 0.0000000e+00               131s
   28203 PPushes remaining with PInf 0.0000000e+00               137s
   19096 PPushes remaining with PInf 0.0000000e+00               142s
    7106 PPushes remaining with PInf 0.0000000e+00               148s
    3676 PPushes remaining with PInf 0.0000000e+00               150s
       0 PPushes remaining with PInf 0.0000000e+00               156s

  Push phase complete: Pinf 0.0000000e+00, Dinf 7.6522611e-12    156s


Root simplex log...

Iteration    Objective       Primal Inf.    Dual Inf.      Time
  123862    1.3301195e+02   0.000000e+00   0.000000e+00    158s
  123862    1.3301195e+02   0.000000e+00   0.000000e+00    161s

Root relaxation: objective 1.330119e+02, 123862 iterations, 117.84 seconds (85.33 work units)

    Nodes    |    Current Node    |     Objective Bounds      |     Work
 Expl Unexpl |  Obj  Depth IntInf | Incumbent    BestBd   Gap | It/Node Time

     0     0  133.01195    0    4          -  133.01195      -     -  161s
H    0     0                     252.2492452  133.01195  47.3%     -  262s
H    0     0                     141.5330506  133.01195  6.02%     -  387s
     0     0  138.82957    0    6  141.53305  138.82957  1.91%     - 1051s
     0     0  138.82957    0    6  141.53305  138.82957  1.91%     - 1075s
     0     0  138.93615    0    4  141.53305  138.93615  1.83%     - 1179s
     0     0  138.93711    0    4  141.53305  138.93711  1.83%     - 1208s
     0     0  138.93796    0    4  141.53305  138.93796  1.83%     - 1223s
     0     0  138.93796    0    4  141.53305  138.93796  1.83%     - 1231s
     0     0  138.99689    0    4  141.53305  138.99689  1.79%     - 1307s
     0     0  138.99718    0    4  141.53305  138.99718  1.79%     - 1331s
     0     0  139.00826    0    4  141.53305  139.00826  1.78%     - 1368s
     0     0  139.00897    0    4  141.53305  139.00897  1.78%     - 1394s
     0     0  139.00924    0    4  141.53305  139.00924  1.78%     - 1409s
     0     0  139.01536    0    4  141.53305  139.01536  1.78%     - 1779s
     0     0  139.01536    0    4  141.53305  139.01536  1.78%     - 3049s
     0     0  139.01536    0    4  141.53305  139.01536  1.78%     - 3504s
     0     0  139.01536    0    4  141.53305  139.01536  1.78%     - 3575s
     0     0  139.02444    0    4  141.53305  139.02444  1.77%     - 3602s
     0     0  139.02516    0    4  141.53305  139.02516  1.77%     - 3616s
     0     0  139.02517    0    4  141.53305  139.02517  1.77%     - 3623s
     0     0  139.02592    0    4  141.53305  139.02592  1.77%     - 3754s
     0     0  139.02597    0    4  141.53305  139.02597  1.77%     - 3774s
     0     0  139.02691    0    4  141.53305  139.02691  1.77%     - 3907s
     0     0  139.02691    0    4  141.53305  139.02691  1.77%     - 3922s
     0     0  139.02691    0    4  141.53305  139.02691  1.77%     - 3938s
     0     0  139.02691    0    4  141.53305  139.02691  1.77%     - 4038s
     0     2  139.02691    0    4  141.53305  139.02691  1.77%     - 5081s
     1     3     cutoff    1       141.53305  139.02720  1.77% 91642 5865s
     3     2     cutoff    2       141.53305  140.04128  1.05% 37042 5953s

Cutting planes:
  MIR: 13680
  Relax-and-lift: 1

Explored 5 nodes (476539 simplex iterations) in 5954.01 seconds (9120.51 work units)
Thread count was 36 (of 36 available processors)

Solution count 2: 141.533 252.249 

Optimal solution found (tolerance 1.00e-02)
Best objective 1.415330506370e+02, best bound 1.413571939463e+02, gap 0.1243%
Termination condition:  optimal
# ==========================================================
# = Solver Results                                         =
# ==========================================================
# ----------------------------------------------------------
#   Problem Information
# ----------------------------------------------------------
Problem: 
- Name: x1
  Lower bound: 141.35719394631786
  Upper bound: 141.53305063704966
  Number of objectives: 1
  Number of constraints: 3887523
  Number of variables: 2254155
  Number of binary variables: 39
  Number of integer variables: 39
  Number of continuous variables: 2254116
  Number of nonzeros: 10466196
  Sense: minimize
# ----------------------------------------------------------
#   Solver Information
# ----------------------------------------------------------
Solver: 
- Status: ok
  Return code: 0
  Message: Model was solved to optimality (subject to tolerances), and an optimal solution is available.
  Termination condition: optimal
  Termination message: Model was solved to optimality (subject to tolerances), and an optimal solution is available.
  Wall time: 5954.067262887955
  Error rc: 0
  Time: 5978.279554605484
# ----------------------------------------------------------
#   Solution Information
# ----------------------------------------------------------
Solution: 
- number of solutions: 0
  number of solutions displayed: 0
# ============================================================================= #
# ============================================================================= #
fixing: vNetworkInvest[2030,N_102,N_104,cac1]
fixing: vNetworkInvest[2030,N_111,N_113,cac1]
fixing: vNetworkInvest[2030,N_112,N_113,cac1]
fixing: vNetworkInvest[2030,N_106,N_110,cac1]
fixing: vNetworkInvest[2030,N_115,N_124,cac1]
fixing: vNetworkInvest[2030,N_105,N_110,cac1]
fixing: vNetworkInvest[2030,N_115,N_121,cac1]
fixing: vNetworkInvest[2030,N_112,N_123,cac1]
fixing: vNetworkInvest[2030,N_119,N_120,cac1]
fixing: vNetworkInvest[2030,N_101,N_105,cac1]
fixing: vNetworkInvest[2030,N_104,N_109,cac1]
fixing: vNetworkInvest[2030,N_114,N_116,cac1]
fixing: vNetworkInvest[2030,N_118,N_121,cac1]
fixing: vNetworkInvest[2030,N_120,N_123,cac1]
fixing: vNetworkInvest[2030,N_106,N_108,cac1]
fixing: vNetworkInvest[2030,N_107,N_108,cac1]
fixing: vNetworkInvest[2030,N_108,N_110,cac1]
fixing: vNetworkInvest[2030,N_113,N_123,cac1]
fixing: vNetworkInvest[2030,N_121,N_122,cac1]
fixing: vNetworkInvest[2030,N_103,N_124,cac1]
fixing: vNetworkInvest[2030,N_115,N_116,cac1]
fixing: vNetworkInvest[2030,N_108,N_109,cac1]
fixing: vNetworkInvest[2030,N_101,N_103,cac1]
fixing: vNetworkInvest[2030,N_101,N_102,cac1]
fixing: vNetworkInvest[2030,N_102,N_106,cac1]
fixing: vNetworkInvest[2030,N_110,N_111,cac1]
fixing: vNetworkInvest[2030,N_110,N_112,cac1]
fixing: vNetworkInvest[2030,N_116,N_119,cac1]
fixing: vNetworkInvest[2030,N_109,N_111,cac1]
fixing: vNetworkInvest[2030,N_103,N_109,cac1]
fixing: vNetworkInvest[2030,N_116,N_117,cac1]
fixing: vNetworkInvest[2030,N_117,N_122,cac1]
fixing: vNetworkInvest[2030,N_115,N_121,cac2]
fixing: vNetworkInvest[2030,N_119,N_120,cac2]
fixing: vNetworkInvest[2030,N_109,N_112,cac1]
fixing: vNetworkInvest[2030,N_111,N_114,cac1]
fixing: vNetworkInvest[2030,N_117,N_118,cac1]
fixing: vNetworkInvest[2030,N_120,N_123,cac2]
fixing: vNetworkInvest[2030,N_118,N_121,cac2]
Number of fixed variables:  39
# ============================================================================= #
# ============================================================================= #
WARNING: Implicitly replacing the Component attribute dual (type=<class
'pyomo.core.base.suffix.Suffix'>) on block 'openStarNet - Open Version of the
StartNetLite Model (Long Term Transmission Expansion Planning) - Version 1.0.0
- January 16, 2023' with a new Component (type=<class
'pyomo.core.base.suffix.Suffix'>). This is usually indicative of a modelling
error. To avoid this warning, use block.del_component() and
block.add_component().
WARNING: Implicitly replacing the Component attribute rc (type=<class
'pyomo.core.base.suffix.Suffix'>) on block 'openStarNet - Open Version of the
StartNetLite Model (Long Term Transmission Expansion Planning) - Version 1.0.0
- January 16, 2023' with a new Component (type=<class
'pyomo.core.base.suffix.Suffix'>). This is usually indicative of a modelling
error. To avoid this warning, use block.del_component() and
block.add_component().
# ==========================================================
# = Solver Results                                         =
# ==========================================================
# ----------------------------------------------------------
#   Problem Information
# ----------------------------------------------------------
Problem: 
- Name: x1
  Lower bound: 141.5330506370495
  Upper bound: 141.5330506370495
  Number of objectives: 1
  Number of constraints: 3887523
  Number of variables: 2254116
  Number of binary variables: 0
  Number of integer variables: 0
  Number of continuous variables: 2254116
  Number of nonzeros: 9103341
  Sense: minimize
# ----------------------------------------------------------
#   Solver Information
# ----------------------------------------------------------
Solver: 
- Status: ok
  Return code: 0
  Message: Model was solved to optimality (subject to tolerances), and an optimal solution is available.
  Termination condition: optimal
  Termination message: Model was solved to optimality (subject to tolerances), and an optimal solution is available.
  Wall time: 81.2584490776062
  Error rc: 0
  Time: 116.51730990409851
# ----------------------------------------------------------
#   Solution Information
# ----------------------------------------------------------
Solution: 
- number of solutions: 0
  number of solutions displayed: 0
Solving                               ...  6306 s
Objective function value                   141.53 M€
Objective function value                   141.5330506370495
Writing         cost summary results  ...  0 s
Writing           investment results  ...  0 s
Writing       energy balance results  ...  128 s
Writing    network operation results  ...  7 s
Writing generation operation results  ...  14 s
Writing        ESS operation results  ...  0 s
Writing             economic results  ...  2 s

 #### Academic research license - for non-commercial use only #### 

Elapsed time: 6789 seconds
